p cnf 476 1900
c p weight 194 0 0
c p weight -194 1 0
c p weight 195 1.0 0
c p weight -195 1 0
190 -189 187 0
190 -189 188 0
-190 189 187 0
-190 189 188 0
190 189 -187 -188 0
-190 -189 -187 -188 0
191 187 -188 0
191 -187 188 0
-191 187 188 0
-191 -187 -188 0
192 193 -190 0
192 -190 191 0
-192 193 190 0
-192 190 191 0
192 -190 -187 0
-192 190 -187 0
192 -193 190 187 -191 0
-192 -193 -190 187 -191 0
193 -187 191 0
-193 187 191 0
-194 191 0
193 -194 -187 0
-193 -194 187 0
193 194 187 -191 0
-193 194 -187 -191 0
-195 191 0
193 -195 187 0
-193 -195 -187 0
193 195 -187 -191 0
-193 195 187 -191 0
196 -192 193 0
196 -192 191 0
-196 192 193 0
-196 192 191 0
196 192 -193 -191 0
-196 -192 -193 -191 0
197 193 -191 0
197 -193 191 0
-197 193 191 0
-197 -193 -191 0
198 -196 193 0
198 -196 186 0
-198 196 193 0
-198 196 186 0
198 -196 185 -197 0
198 -196 -185 197 0
-198 196 185 -197 0
-198 196 -185 197 0
198 196 -193 185 197 -186 0
198 196 -193 -185 -197 -186 0
-198 -196 -193 185 197 -186 0
-198 -196 -193 -185 -197 -186 0
200 193 -185 0
200 -193 185 0
-200 193 185 0
-200 -193 -185 0
199 197 -186 0
199 -197 186 0
-199 197 186 0
-199 -197 -186 0
201 -198 200 0
201 -198 184 0
-201 198 200 0
-201 198 184 0
201 -198 183 -186 0
201 -198 -183 186 0
-201 198 183 -186 0
-201 198 -183 186 0
201 198 -200 183 186 -184 0
201 198 -200 -183 -186 -184 0
-201 -198 -200 183 186 -184 0
-201 -198 -200 -183 -186 -184 0
203 200 -183 0
203 -200 183 0
-203 200 183 0
-203 -200 -183 0
202 186 -184 0
202 -186 184 0
-202 186 184 0
-202 -186 -184 0
204 -201 203 0
204 -201 182 0
-204 201 203 0
-204 201 182 0
204 -201 181 -184 0
204 -201 -181 184 0
-204 201 181 -184 0
-204 201 -181 184 0
204 201 -203 181 184 -182 0
204 201 -203 -181 -184 -182 0
-204 -201 -203 181 184 -182 0
-204 -201 -203 -181 -184 -182 0
206 203 -181 0
206 -203 181 0
-206 203 181 0
-206 -203 -181 0
205 184 -182 0
205 -184 182 0
-205 184 182 0
-205 -184 -182 0
207 -204 206 0
207 -204 180 0
-207 204 206 0
-207 204 180 0
207 -204 179 -182 0
207 -204 -179 182 0
-207 204 179 -182 0
-207 204 -179 182 0
207 204 -206 179 182 -180 0
207 204 -206 -179 -182 -180 0
-207 -204 -206 179 182 -180 0
-207 -204 -206 -179 -182 -180 0
209 206 -179 0
209 -206 179 0
-209 206 179 0
-209 -206 -179 0
208 182 -180 0
208 -182 180 0
-208 182 180 0
-208 -182 -180 0
210 -207 209 0
210 -207 178 0
-210 207 209 0
-210 207 178 0
210 -207 177 -180 0
210 -207 -177 180 0
-210 207 177 -180 0
-210 207 -177 180 0
210 207 -209 177 180 -178 0
210 207 -209 -177 -180 -178 0
-210 -207 -209 177 180 -178 0
-210 -207 -209 -177 -180 -178 0
212 209 -177 0
212 -209 177 0
-212 209 177 0
-212 -209 -177 0
211 180 -178 0
211 -180 178 0
-211 180 178 0
-211 -180 -178 0
213 -210 212 0
213 -210 176 0
-213 210 212 0
-213 210 176 0
213 -210 175 -178 0
213 -210 -175 178 0
-213 210 175 -178 0
-213 210 -175 178 0
213 210 -212 175 178 -176 0
213 210 -212 -175 -178 -176 0
-213 -210 -212 175 178 -176 0
-213 -210 -212 -175 -178 -176 0
215 212 -175 0
215 -212 175 0
-215 212 175 0
-215 -212 -175 0
214 178 -176 0
214 -178 176 0
-214 178 176 0
-214 -178 -176 0
216 -213 215 0
216 -213 174 0
-216 213 215 0
-216 213 174 0
216 -213 173 -176 0
216 -213 -173 176 0
-216 213 173 -176 0
-216 213 -173 176 0
216 213 -215 173 176 -174 0
216 213 -215 -173 -176 -174 0
-216 -213 -215 173 176 -174 0
-216 -213 -215 -173 -176 -174 0
218 215 -173 0
218 -215 173 0
-218 215 173 0
-218 -215 -173 0
217 176 -174 0
217 -176 174 0
-217 176 174 0
-217 -176 -174 0
219 -216 218 0
219 -216 172 0
-219 216 218 0
-219 216 172 0
219 -216 171 -174 0
219 -216 -171 174 0
-219 216 171 -174 0
-219 216 -171 174 0
219 216 -218 171 174 -172 0
219 216 -218 -171 -174 -172 0
-219 -216 -218 171 174 -172 0
-219 -216 -218 -171 -174 -172 0
221 218 -171 0
221 -218 171 0
-221 218 171 0
-221 -218 -171 0
220 174 -172 0
220 -174 172 0
-220 174 172 0
-220 -174 -172 0
222 -219 221 0
222 -219 170 0
-222 219 221 0
-222 219 170 0
222 -219 169 -172 0
222 -219 -169 172 0
-222 219 169 -172 0
-222 219 -169 172 0
222 219 -221 169 172 -170 0
222 219 -221 -169 -172 -170 0
-222 -219 -221 169 172 -170 0
-222 -219 -221 -169 -172 -170 0
224 221 -169 0
224 -221 169 0
-224 221 169 0
-224 -221 -169 0
223 172 -170 0
223 -172 170 0
-223 172 170 0
-223 -172 -170 0
225 -222 224 0
225 -222 168 0
-225 222 224 0
-225 222 168 0
225 -222 167 -170 0
225 -222 -167 170 0
-225 222 167 -170 0
-225 222 -167 170 0
225 222 -224 167 170 -168 0
225 222 -224 -167 -170 -168 0
-225 -222 -224 167 170 -168 0
-225 -222 -224 -167 -170 -168 0
227 224 -167 0
227 -224 167 0
-227 224 167 0
-227 -224 -167 0
226 170 -168 0
226 -170 168 0
-226 170 168 0
-226 -170 -168 0
228 -225 227 0
228 -225 166 0
-228 225 227 0
-228 225 166 0
228 -225 165 -168 0
228 -225 -165 168 0
-228 225 165 -168 0
-228 225 -165 168 0
228 225 -227 165 168 -166 0
228 225 -227 -165 -168 -166 0
-228 -225 -227 165 168 -166 0
-228 -225 -227 -165 -168 -166 0
230 227 -165 0
230 -227 165 0
-230 227 165 0
-230 -227 -165 0
229 168 -166 0
229 -168 166 0
-229 168 166 0
-229 -168 -166 0
231 -228 230 0
231 -228 164 0
-231 228 230 0
-231 228 164 0
231 -228 163 -166 0
231 -228 -163 166 0
-231 228 163 -166 0
-231 228 -163 166 0
231 228 -230 163 166 -164 0
231 228 -230 -163 -166 -164 0
-231 -228 -230 163 166 -164 0
-231 -228 -230 -163 -166 -164 0
233 230 -163 0
233 -230 163 0
-233 230 163 0
-233 -230 -163 0
232 166 -164 0
232 -166 164 0
-232 166 164 0
-232 -166 -164 0
234 -231 233 0
234 -231 162 0
-234 231 233 0
-234 231 162 0
234 -231 161 -164 0
234 -231 -161 164 0
-234 231 161 -164 0
-234 231 -161 164 0
234 231 -233 161 164 -162 0
234 231 -233 -161 -164 -162 0
-234 -231 -233 161 164 -162 0
-234 -231 -233 -161 -164 -162 0
236 233 -161 0
236 -233 161 0
-236 233 161 0
-236 -233 -161 0
235 164 -162 0
235 -164 162 0
-235 164 162 0
-235 -164 -162 0
237 -234 236 0
237 -234 160 0
-237 234 236 0
-237 234 160 0
237 -234 159 -162 0
237 -234 -159 162 0
-237 234 159 -162 0
-237 234 -159 162 0
237 234 -236 159 162 -160 0
237 234 -236 -159 -162 -160 0
-237 -234 -236 159 162 -160 0
-237 -234 -236 -159 -162 -160 0
239 236 -159 0
239 -236 159 0
-239 236 159 0
-239 -236 -159 0
238 162 -160 0
238 -162 160 0
-238 162 160 0
-238 -162 -160 0
240 -237 239 0
240 -237 158 0
-240 237 239 0
-240 237 158 0
240 -237 157 -160 0
240 -237 -157 160 0
-240 237 157 -160 0
-240 237 -157 160 0
240 237 -239 157 160 -158 0
240 237 -239 -157 -160 -158 0
-240 -237 -239 157 160 -158 0
-240 -237 -239 -157 -160 -158 0
242 239 -157 0
242 -239 157 0
-242 239 157 0
-242 -239 -157 0
241 160 -158 0
241 -160 158 0
-241 160 158 0
-241 -160 -158 0
243 -240 242 0
243 -240 156 0
-243 240 242 0
-243 240 156 0
243 -240 155 -158 0
243 -240 -155 158 0
-243 240 155 -158 0
-243 240 -155 158 0
243 240 -242 155 158 -156 0
243 240 -242 -155 -158 -156 0
-243 -240 -242 155 158 -156 0
-243 -240 -242 -155 -158 -156 0
245 242 -155 0
245 -242 155 0
-245 242 155 0
-245 -242 -155 0
244 158 -156 0
244 -158 156 0
-244 158 156 0
-244 -158 -156 0
246 -243 245 0
246 -243 154 0
-246 243 245 0
-246 243 154 0
246 -243 153 -156 0
246 -243 -153 156 0
-246 243 153 -156 0
-246 243 -153 156 0
246 243 -245 153 156 -154 0
246 243 -245 -153 -156 -154 0
-246 -243 -245 153 156 -154 0
-246 -243 -245 -153 -156 -154 0
248 245 -153 0
248 -245 153 0
-248 245 153 0
-248 -245 -153 0
247 156 -154 0
247 -156 154 0
-247 156 154 0
-247 -156 -154 0
249 -246 248 0
249 -246 152 0
-249 246 248 0
-249 246 152 0
249 -246 151 -154 0
249 -246 -151 154 0
-249 246 151 -154 0
-249 246 -151 154 0
249 246 -248 151 154 -152 0
249 246 -248 -151 -154 -152 0
-249 -246 -248 151 154 -152 0
-249 -246 -248 -151 -154 -152 0
251 248 -151 0
251 -248 151 0
-251 248 151 0
-251 -248 -151 0
250 154 -152 0
250 -154 152 0
-250 154 152 0
-250 -154 -152 0
252 -249 251 0
252 -249 150 0
-252 249 251 0
-252 249 150 0
252 -249 149 -152 0
252 -249 -149 152 0
-252 249 149 -152 0
-252 249 -149 152 0
252 249 -251 149 152 -150 0
252 249 -251 -149 -152 -150 0
-252 -249 -251 149 152 -150 0
-252 -249 -251 -149 -152 -150 0
254 251 -149 0
254 -251 149 0
-254 251 149 0
-254 -251 -149 0
253 152 -150 0
253 -152 150 0
-253 152 150 0
-253 -152 -150 0
255 -252 254 0
255 -252 148 0
-255 252 254 0
-255 252 148 0
255 -252 147 -150 0
255 -252 -147 150 0
-255 252 147 -150 0
-255 252 -147 150 0
255 252 -254 147 150 -148 0
255 252 -254 -147 -150 -148 0
-255 -252 -254 147 150 -148 0
-255 -252 -254 -147 -150 -148 0
257 254 -147 0
257 -254 147 0
-257 254 147 0
-257 -254 -147 0
256 150 -148 0
256 -150 148 0
-256 150 148 0
-256 -150 -148 0
258 -255 257 0
258 -255 146 0
-258 255 257 0
-258 255 146 0
258 -255 145 -148 0
258 -255 -145 148 0
-258 255 145 -148 0
-258 255 -145 148 0
258 255 -257 145 148 -146 0
258 255 -257 -145 -148 -146 0
-258 -255 -257 145 148 -146 0
-258 -255 -257 -145 -148 -146 0
260 257 -145 0
260 -257 145 0
-260 257 145 0
-260 -257 -145 0
259 148 -146 0
259 -148 146 0
-259 148 146 0
-259 -148 -146 0
261 -258 260 0
261 -258 144 0
-261 258 260 0
-261 258 144 0
261 -258 143 -146 0
261 -258 -143 146 0
-261 258 143 -146 0
-261 258 -143 146 0
261 258 -260 143 146 -144 0
261 258 -260 -143 -146 -144 0
-261 -258 -260 143 146 -144 0
-261 -258 -260 -143 -146 -144 0
263 260 -143 0
263 -260 143 0
-263 260 143 0
-263 -260 -143 0
262 146 -144 0
262 -146 144 0
-262 146 144 0
-262 -146 -144 0
264 -261 263 0
264 -261 142 0
-264 261 263 0
-264 261 142 0
264 -261 141 -144 0
264 -261 -141 144 0
-264 261 141 -144 0
-264 261 -141 144 0
264 261 -263 141 144 -142 0
264 261 -263 -141 -144 -142 0
-264 -261 -263 141 144 -142 0
-264 -261 -263 -141 -144 -142 0
266 263 -141 0
266 -263 141 0
-266 263 141 0
-266 -263 -141 0
265 144 -142 0
265 -144 142 0
-265 144 142 0
-265 -144 -142 0
267 -264 266 0
267 -264 140 0
-267 264 266 0
-267 264 140 0
267 -264 139 -142 0
267 -264 -139 142 0
-267 264 139 -142 0
-267 264 -139 142 0
267 264 -266 139 142 -140 0
267 264 -266 -139 -142 -140 0
-267 -264 -266 139 142 -140 0
-267 -264 -266 -139 -142 -140 0
269 266 -139 0
269 -266 139 0
-269 266 139 0
-269 -266 -139 0
268 142 -140 0
268 -142 140 0
-268 142 140 0
-268 -142 -140 0
270 -267 269 0
270 -267 138 0
-270 267 269 0
-270 267 138 0
270 -267 137 -140 0
270 -267 -137 140 0
-270 267 137 -140 0
-270 267 -137 140 0
270 267 -269 137 140 -138 0
270 267 -269 -137 -140 -138 0
-270 -267 -269 137 140 -138 0
-270 -267 -269 -137 -140 -138 0
272 269 -137 0
272 -269 137 0
-272 269 137 0
-272 -269 -137 0
271 140 -138 0
271 -140 138 0
-271 140 138 0
-271 -140 -138 0
273 -270 272 0
273 -270 136 0
-273 270 272 0
-273 270 136 0
273 -270 135 -138 0
273 -270 -135 138 0
-273 270 135 -138 0
-273 270 -135 138 0
273 270 -272 135 138 -136 0
273 270 -272 -135 -138 -136 0
-273 -270 -272 135 138 -136 0
-273 -270 -272 -135 -138 -136 0
275 272 -135 0
275 -272 135 0
-275 272 135 0
-275 -272 -135 0
274 138 -136 0
274 -138 136 0
-274 138 136 0
-274 -138 -136 0
276 -273 275 0
276 -273 134 0
-276 273 275 0
-276 273 134 0
276 -273 133 -136 0
276 -273 -133 136 0
-276 273 133 -136 0
-276 273 -133 136 0
276 273 -275 133 136 -134 0
276 273 -275 -133 -136 -134 0
-276 -273 -275 133 136 -134 0
-276 -273 -275 -133 -136 -134 0
278 275 -133 0
278 -275 133 0
-278 275 133 0
-278 -275 -133 0
277 136 -134 0
277 -136 134 0
-277 136 134 0
-277 -136 -134 0
279 -276 278 0
279 -276 132 0
-279 276 278 0
-279 276 132 0
279 -276 131 -134 0
279 -276 -131 134 0
-279 276 131 -134 0
-279 276 -131 134 0
279 276 -278 131 134 -132 0
279 276 -278 -131 -134 -132 0
-279 -276 -278 131 134 -132 0
-279 -276 -278 -131 -134 -132 0
281 278 -131 0
281 -278 131 0
-281 278 131 0
-281 -278 -131 0
280 134 -132 0
280 -134 132 0
-280 134 132 0
-280 -134 -132 0
282 -279 281 0
282 -279 130 0
-282 279 281 0
-282 279 130 0
282 -279 129 -132 0
282 -279 -129 132 0
-282 279 129 -132 0
-282 279 -129 132 0
282 279 -281 129 132 -130 0
282 279 -281 -129 -132 -130 0
-282 -279 -281 129 132 -130 0
-282 -279 -281 -129 -132 -130 0
284 281 -129 0
284 -281 129 0
-284 281 129 0
-284 -281 -129 0
283 132 -130 0
283 -132 130 0
-283 132 130 0
-283 -132 -130 0
285 -282 284 0
285 -282 128 0
-285 282 284 0
-285 282 128 0
285 -282 127 -130 0
285 -282 -127 130 0
-285 282 127 -130 0
-285 282 -127 130 0
285 282 -284 127 130 -128 0
285 282 -284 -127 -130 -128 0
-285 -282 -284 127 130 -128 0
-285 -282 -284 -127 -130 -128 0
287 284 -127 0
287 -284 127 0
-287 284 127 0
-287 -284 -127 0
286 130 -128 0
286 -130 128 0
-286 130 128 0
-286 -130 -128 0
288 -285 287 0
288 -285 126 0
-288 285 287 0
-288 285 126 0
288 -285 125 -128 0
288 -285 -125 128 0
-288 285 125 -128 0
-288 285 -125 128 0
288 285 -287 125 128 -126 0
288 285 -287 -125 -128 -126 0
-288 -285 -287 125 128 -126 0
-288 -285 -287 -125 -128 -126 0
290 287 -125 0
290 -287 125 0
-290 287 125 0
-290 -287 -125 0
289 128 -126 0
289 -128 126 0
-289 128 126 0
-289 -128 -126 0
291 -288 290 0
291 -288 124 0
-291 288 290 0
-291 288 124 0
291 -288 123 -126 0
291 -288 -123 126 0
-291 288 123 -126 0
-291 288 -123 126 0
291 288 -290 123 126 -124 0
291 288 -290 -123 -126 -124 0
-291 -288 -290 123 126 -124 0
-291 -288 -290 -123 -126 -124 0
293 290 -123 0
293 -290 123 0
-293 290 123 0
-293 -290 -123 0
292 126 -124 0
292 -126 124 0
-292 126 124 0
-292 -126 -124 0
294 -291 293 0
294 -291 122 0
-294 291 293 0
-294 291 122 0
294 -291 121 -124 0
294 -291 -121 124 0
-294 291 121 -124 0
-294 291 -121 124 0
294 291 -293 121 124 -122 0
294 291 -293 -121 -124 -122 0
-294 -291 -293 121 124 -122 0
-294 -291 -293 -121 -124 -122 0
296 293 -121 0
296 -293 121 0
-296 293 121 0
-296 -293 -121 0
295 124 -122 0
295 -124 122 0
-295 124 122 0
-295 -124 -122 0
297 -294 296 0
297 -294 120 0
-297 294 296 0
-297 294 120 0
297 -294 119 -122 0
297 -294 -119 122 0
-297 294 119 -122 0
-297 294 -119 122 0
297 294 -296 119 122 -120 0
297 294 -296 -119 -122 -120 0
-297 -294 -296 119 122 -120 0
-297 -294 -296 -119 -122 -120 0
299 296 -119 0
299 -296 119 0
-299 296 119 0
-299 -296 -119 0
298 122 -120 0
298 -122 120 0
-298 122 120 0
-298 -122 -120 0
300 -297 299 0
300 -297 118 0
-300 297 299 0
-300 297 118 0
300 -297 117 -120 0
300 -297 -117 120 0
-300 297 117 -120 0
-300 297 -117 120 0
300 297 -299 117 120 -118 0
300 297 -299 -117 -120 -118 0
-300 -297 -299 117 120 -118 0
-300 -297 -299 -117 -120 -118 0
302 299 -117 0
302 -299 117 0
-302 299 117 0
-302 -299 -117 0
301 120 -118 0
301 -120 118 0
-301 120 118 0
-301 -120 -118 0
303 -300 302 0
303 -300 116 0
-303 300 302 0
-303 300 116 0
303 -300 115 -118 0
303 -300 -115 118 0
-303 300 115 -118 0
-303 300 -115 118 0
303 300 -302 115 118 -116 0
303 300 -302 -115 -118 -116 0
-303 -300 -302 115 118 -116 0
-303 -300 -302 -115 -118 -116 0
305 302 -115 0
305 -302 115 0
-305 302 115 0
-305 -302 -115 0
304 118 -116 0
304 -118 116 0
-304 118 116 0
-304 -118 -116 0
306 -303 305 0
306 -303 114 0
-306 303 305 0
-306 303 114 0
306 -303 113 -116 0
306 -303 -113 116 0
-306 303 113 -116 0
-306 303 -113 116 0
306 303 -305 113 116 -114 0
306 303 -305 -113 -116 -114 0
-306 -303 -305 113 116 -114 0
-306 -303 -305 -113 -116 -114 0
308 305 -113 0
308 -305 113 0
-308 305 113 0
-308 -305 -113 0
307 116 -114 0
307 -116 114 0
-307 116 114 0
-307 -116 -114 0
309 -306 308 0
309 -306 112 0
-309 306 308 0
-309 306 112 0
309 -306 111 -114 0
309 -306 -111 114 0
-309 306 111 -114 0
-309 306 -111 114 0
309 306 -308 111 114 -112 0
309 306 -308 -111 -114 -112 0
-309 -306 -308 111 114 -112 0
-309 -306 -308 -111 -114 -112 0
311 308 -111 0
311 -308 111 0
-311 308 111 0
-311 -308 -111 0
310 114 -112 0
310 -114 112 0
-310 114 112 0
-310 -114 -112 0
312 -309 311 0
312 -309 110 0
-312 309 311 0
-312 309 110 0
312 -309 109 -112 0
312 -309 -109 112 0
-312 309 109 -112 0
-312 309 -109 112 0
312 309 -311 109 112 -110 0
312 309 -311 -109 -112 -110 0
-312 -309 -311 109 112 -110 0
-312 -309 -311 -109 -112 -110 0
314 311 -109 0
314 -311 109 0
-314 311 109 0
-314 -311 -109 0
313 112 -110 0
313 -112 110 0
-313 112 110 0
-313 -112 -110 0
315 -312 314 0
315 -312 108 0
-315 312 314 0
-315 312 108 0
315 -312 107 -110 0
315 -312 -107 110 0
-315 312 107 -110 0
-315 312 -107 110 0
315 312 -314 107 110 -108 0
315 312 -314 -107 -110 -108 0
-315 -312 -314 107 110 -108 0
-315 -312 -314 -107 -110 -108 0
317 314 -107 0
317 -314 107 0
-317 314 107 0
-317 -314 -107 0
316 110 -108 0
316 -110 108 0
-316 110 108 0
-316 -110 -108 0
318 -315 317 0
318 -315 106 0
-318 315 317 0
-318 315 106 0
318 -315 105 -108 0
318 -315 -105 108 0
-318 315 105 -108 0
-318 315 -105 108 0
318 315 -317 105 108 -106 0
318 315 -317 -105 -108 -106 0
-318 -315 -317 105 108 -106 0
-318 -315 -317 -105 -108 -106 0
320 317 -105 0
320 -317 105 0
-320 317 105 0
-320 -317 -105 0
319 108 -106 0
319 -108 106 0
-319 108 106 0
-319 -108 -106 0
321 -318 320 0
321 -318 104 0
-321 318 320 0
-321 318 104 0
321 -318 103 -106 0
321 -318 -103 106 0
-321 318 103 -106 0
-321 318 -103 106 0
321 318 -320 103 106 -104 0
321 318 -320 -103 -106 -104 0
-321 -318 -320 103 106 -104 0
-321 -318 -320 -103 -106 -104 0
323 320 -103 0
323 -320 103 0
-323 320 103 0
-323 -320 -103 0
322 106 -104 0
322 -106 104 0
-322 106 104 0
-322 -106 -104 0
324 -321 323 0
324 -321 102 0
-324 321 323 0
-324 321 102 0
324 -321 101 -104 0
324 -321 -101 104 0
-324 321 101 -104 0
-324 321 -101 104 0
324 321 -323 101 104 -102 0
324 321 -323 -101 -104 -102 0
-324 -321 -323 101 104 -102 0
-324 -321 -323 -101 -104 -102 0
326 323 -101 0
326 -323 101 0
-326 323 101 0
-326 -323 -101 0
325 104 -102 0
325 -104 102 0
-325 104 102 0
-325 -104 -102 0
327 -324 326 0
327 -324 100 0
-327 324 326 0
-327 324 100 0
327 -324 99 -102 0
327 -324 -99 102 0
-327 324 99 -102 0
-327 324 -99 102 0
327 324 -326 99 102 -100 0
327 324 -326 -99 -102 -100 0
-327 -324 -326 99 102 -100 0
-327 -324 -326 -99 -102 -100 0
329 326 -99 0
329 -326 99 0
-329 326 99 0
-329 -326 -99 0
328 102 -100 0
328 -102 100 0
-328 102 100 0
-328 -102 -100 0
330 -327 329 0
330 -327 98 0
-330 327 329 0
-330 327 98 0
330 -327 97 -100 0
330 -327 -97 100 0
-330 327 97 -100 0
-330 327 -97 100 0
330 327 -329 97 100 -98 0
330 327 -329 -97 -100 -98 0
-330 -327 -329 97 100 -98 0
-330 -327 -329 -97 -100 -98 0
332 329 -97 0
332 -329 97 0
-332 329 97 0
-332 -329 -97 0
331 100 -98 0
331 -100 98 0
-331 100 98 0
-331 -100 -98 0
333 -330 332 0
333 -330 96 0
-333 330 332 0
-333 330 96 0
333 -330 95 -98 0
333 -330 -95 98 0
-333 330 95 -98 0
-333 330 -95 98 0
333 330 -332 95 98 -96 0
333 330 -332 -95 -98 -96 0
-333 -330 -332 95 98 -96 0
-333 -330 -332 -95 -98 -96 0
335 332 -95 0
335 -332 95 0
-335 332 95 0
-335 -332 -95 0
334 98 -96 0
334 -98 96 0
-334 98 96 0
-334 -98 -96 0
336 -333 335 0
336 -333 94 0
-336 333 335 0
-336 333 94 0
336 -333 93 -96 0
336 -333 -93 96 0
-336 333 93 -96 0
-336 333 -93 96 0
336 333 -335 93 96 -94 0
336 333 -335 -93 -96 -94 0
-336 -333 -335 93 96 -94 0
-336 -333 -335 -93 -96 -94 0
338 335 -93 0
338 -335 93 0
-338 335 93 0
-338 -335 -93 0
337 96 -94 0
337 -96 94 0
-337 96 94 0
-337 -96 -94 0
339 -336 338 0
339 -336 92 0
-339 336 338 0
-339 336 92 0
339 -336 91 -94 0
339 -336 -91 94 0
-339 336 91 -94 0
-339 336 -91 94 0
339 336 -338 91 94 -92 0
339 336 -338 -91 -94 -92 0
-339 -336 -338 91 94 -92 0
-339 -336 -338 -91 -94 -92 0
341 338 -91 0
341 -338 91 0
-341 338 91 0
-341 -338 -91 0
340 94 -92 0
340 -94 92 0
-340 94 92 0
-340 -94 -92 0
342 -339 341 0
342 -339 90 0
-342 339 341 0
-342 339 90 0
342 -339 89 -92 0
342 -339 -89 92 0
-342 339 89 -92 0
-342 339 -89 92 0
342 339 -341 89 92 -90 0
342 339 -341 -89 -92 -90 0
-342 -339 -341 89 92 -90 0
-342 -339 -341 -89 -92 -90 0
344 341 -89 0
344 -341 89 0
-344 341 89 0
-344 -341 -89 0
343 92 -90 0
343 -92 90 0
-343 92 90 0
-343 -92 -90 0
345 -342 344 0
345 -342 88 0
-345 342 344 0
-345 342 88 0
345 -342 87 -90 0
345 -342 -87 90 0
-345 342 87 -90 0
-345 342 -87 90 0
345 342 -344 87 90 -88 0
345 342 -344 -87 -90 -88 0
-345 -342 -344 87 90 -88 0
-345 -342 -344 -87 -90 -88 0
347 344 -87 0
347 -344 87 0
-347 344 87 0
-347 -344 -87 0
346 90 -88 0
346 -90 88 0
-346 90 88 0
-346 -90 -88 0
348 -345 347 0
348 -345 86 0
-348 345 347 0
-348 345 86 0
348 -345 85 -88 0
348 -345 -85 88 0
-348 345 85 -88 0
-348 345 -85 88 0
348 345 -347 85 88 -86 0
348 345 -347 -85 -88 -86 0
-348 -345 -347 85 88 -86 0
-348 -345 -347 -85 -88 -86 0
350 347 -85 0
350 -347 85 0
-350 347 85 0
-350 -347 -85 0
349 88 -86 0
349 -88 86 0
-349 88 86 0
-349 -88 -86 0
351 -348 350 0
351 -348 84 0
-351 348 350 0
-351 348 84 0
351 -348 83 -86 0
351 -348 -83 86 0
-351 348 83 -86 0
-351 348 -83 86 0
351 348 -350 83 86 -84 0
351 348 -350 -83 -86 -84 0
-351 -348 -350 83 86 -84 0
-351 -348 -350 -83 -86 -84 0
353 350 -83 0
353 -350 83 0
-353 350 83 0
-353 -350 -83 0
352 86 -84 0
352 -86 84 0
-352 86 84 0
-352 -86 -84 0
354 -351 353 0
354 -351 82 0
-354 351 353 0
-354 351 82 0
354 -351 81 -84 0
354 -351 -81 84 0
-354 351 81 -84 0
-354 351 -81 84 0
354 351 -353 81 84 -82 0
354 351 -353 -81 -84 -82 0
-354 -351 -353 81 84 -82 0
-354 -351 -353 -81 -84 -82 0
356 353 -81 0
356 -353 81 0
-356 353 81 0
-356 -353 -81 0
355 84 -82 0
355 -84 82 0
-355 84 82 0
-355 -84 -82 0
357 -354 356 0
357 -354 80 0
-357 354 356 0
-357 354 80 0
357 -354 79 -82 0
357 -354 -79 82 0
-357 354 79 -82 0
-357 354 -79 82 0
357 354 -356 79 82 -80 0
357 354 -356 -79 -82 -80 0
-357 -354 -356 79 82 -80 0
-357 -354 -356 -79 -82 -80 0
359 356 -79 0
359 -356 79 0
-359 356 79 0
-359 -356 -79 0
358 82 -80 0
358 -82 80 0
-358 82 80 0
-358 -82 -80 0
360 -357 359 0
360 -357 78 0
-360 357 359 0
-360 357 78 0
360 -357 77 -80 0
360 -357 -77 80 0
-360 357 77 -80 0
-360 357 -77 80 0
360 357 -359 77 80 -78 0
360 357 -359 -77 -80 -78 0
-360 -357 -359 77 80 -78 0
-360 -357 -359 -77 -80 -78 0
362 359 -77 0
362 -359 77 0
-362 359 77 0
-362 -359 -77 0
361 80 -78 0
361 -80 78 0
-361 80 78 0
-361 -80 -78 0
363 -360 362 0
363 -360 76 0
-363 360 362 0
-363 360 76 0
363 -360 75 -78 0
363 -360 -75 78 0
-363 360 75 -78 0
-363 360 -75 78 0
363 360 -362 75 78 -76 0
363 360 -362 -75 -78 -76 0
-363 -360 -362 75 78 -76 0
-363 -360 -362 -75 -78 -76 0
365 362 -75 0
365 -362 75 0
-365 362 75 0
-365 -362 -75 0
364 78 -76 0
364 -78 76 0
-364 78 76 0
-364 -78 -76 0
366 -363 365 0
366 -363 74 0
-366 363 365 0
-366 363 74 0
366 -363 73 -76 0
366 -363 -73 76 0
-366 363 73 -76 0
-366 363 -73 76 0
366 363 -365 73 76 -74 0
366 363 -365 -73 -76 -74 0
-366 -363 -365 73 76 -74 0
-366 -363 -365 -73 -76 -74 0
368 365 -73 0
368 -365 73 0
-368 365 73 0
-368 -365 -73 0
367 76 -74 0
367 -76 74 0
-367 76 74 0
-367 -76 -74 0
369 -366 368 0
369 -366 72 0
-369 366 368 0
-369 366 72 0
369 -366 71 -74 0
369 -366 -71 74 0
-369 366 71 -74 0
-369 366 -71 74 0
369 366 -368 71 74 -72 0
369 366 -368 -71 -74 -72 0
-369 -366 -368 71 74 -72 0
-369 -366 -368 -71 -74 -72 0
371 368 -71 0
371 -368 71 0
-371 368 71 0
-371 -368 -71 0
370 74 -72 0
370 -74 72 0
-370 74 72 0
-370 -74 -72 0
372 -369 371 0
372 -369 70 0
-372 369 371 0
-372 369 70 0
372 -369 69 -72 0
372 -369 -69 72 0
-372 369 69 -72 0
-372 369 -69 72 0
372 369 -371 69 72 -70 0
372 369 -371 -69 -72 -70 0
-372 -369 -371 69 72 -70 0
-372 -369 -371 -69 -72 -70 0
374 371 -69 0
374 -371 69 0
-374 371 69 0
-374 -371 -69 0
373 72 -70 0
373 -72 70 0
-373 72 70 0
-373 -72 -70 0
375 -372 374 0
375 -372 68 0
-375 372 374 0
-375 372 68 0
375 -372 67 -70 0
375 -372 -67 70 0
-375 372 67 -70 0
-375 372 -67 70 0
375 372 -374 67 70 -68 0
375 372 -374 -67 -70 -68 0
-375 -372 -374 67 70 -68 0
-375 -372 -374 -67 -70 -68 0
377 374 -67 0
377 -374 67 0
-377 374 67 0
-377 -374 -67 0
376 70 -68 0
376 -70 68 0
-376 70 68 0
-376 -70 -68 0
378 -375 377 0
378 -375 66 0
-378 375 377 0
-378 375 66 0
378 -375 65 -68 0
378 -375 -65 68 0
-378 375 65 -68 0
-378 375 -65 68 0
378 375 -377 65 68 -66 0
378 375 -377 -65 -68 -66 0
-378 -375 -377 65 68 -66 0
-378 -375 -377 -65 -68 -66 0
380 377 -65 0
380 -377 65 0
-380 377 65 0
-380 -377 -65 0
379 68 -66 0
379 -68 66 0
-379 68 66 0
-379 -68 -66 0
381 -378 380 0
381 -378 64 0
-381 378 380 0
-381 378 64 0
381 -378 63 -66 0
381 -378 -63 66 0
-381 378 63 -66 0
-381 378 -63 66 0
381 378 -380 63 66 -64 0
381 378 -380 -63 -66 -64 0
-381 -378 -380 63 66 -64 0
-381 -378 -380 -63 -66 -64 0
383 380 -63 0
383 -380 63 0
-383 380 63 0
-383 -380 -63 0
382 66 -64 0
382 -66 64 0
-382 66 64 0
-382 -66 -64 0
384 -381 383 0
384 -381 62 0
-384 381 383 0
-384 381 62 0
384 -381 61 -64 0
384 -381 -61 64 0
-384 381 61 -64 0
-384 381 -61 64 0
384 381 -383 61 64 -62 0
384 381 -383 -61 -64 -62 0
-384 -381 -383 61 64 -62 0
-384 -381 -383 -61 -64 -62 0
386 383 -61 0
386 -383 61 0
-386 383 61 0
-386 -383 -61 0
385 64 -62 0
385 -64 62 0
-385 64 62 0
-385 -64 -62 0
387 -384 386 0
387 -384 60 0
-387 384 386 0
-387 384 60 0
387 -384 59 -62 0
387 -384 -59 62 0
-387 384 59 -62 0
-387 384 -59 62 0
387 384 -386 59 62 -60 0
387 384 -386 -59 -62 -60 0
-387 -384 -386 59 62 -60 0
-387 -384 -386 -59 -62 -60 0
389 386 -59 0
389 -386 59 0
-389 386 59 0
-389 -386 -59 0
388 62 -60 0
388 -62 60 0
-388 62 60 0
-388 -62 -60 0
390 -387 389 0
390 -387 58 0
-390 387 389 0
-390 387 58 0
390 -387 57 -60 0
390 -387 -57 60 0
-390 387 57 -60 0
-390 387 -57 60 0
390 387 -389 57 60 -58 0
390 387 -389 -57 -60 -58 0
-390 -387 -389 57 60 -58 0
-390 -387 -389 -57 -60 -58 0
392 389 -57 0
392 -389 57 0
-392 389 57 0
-392 -389 -57 0
391 60 -58 0
391 -60 58 0
-391 60 58 0
-391 -60 -58 0
393 -390 392 0
393 -390 56 0
-393 390 392 0
-393 390 56 0
393 -390 55 -58 0
393 -390 -55 58 0
-393 390 55 -58 0
-393 390 -55 58 0
393 390 -392 55 58 -56 0
393 390 -392 -55 -58 -56 0
-393 -390 -392 55 58 -56 0
-393 -390 -392 -55 -58 -56 0
395 392 -55 0
395 -392 55 0
-395 392 55 0
-395 -392 -55 0
394 58 -56 0
394 -58 56 0
-394 58 56 0
-394 -58 -56 0
396 -393 395 0
396 -393 54 0
-396 393 395 0
-396 393 54 0
396 -393 53 -56 0
396 -393 -53 56 0
-396 393 53 -56 0
-396 393 -53 56 0
396 393 -395 53 56 -54 0
396 393 -395 -53 -56 -54 0
-396 -393 -395 53 56 -54 0
-396 -393 -395 -53 -56 -54 0
398 395 -53 0
398 -395 53 0
-398 395 53 0
-398 -395 -53 0
397 56 -54 0
397 -56 54 0
-397 56 54 0
-397 -56 -54 0
399 -396 398 0
399 -396 52 0
-399 396 398 0
-399 396 52 0
399 -396 51 -54 0
399 -396 -51 54 0
-399 396 51 -54 0
-399 396 -51 54 0
399 396 -398 51 54 -52 0
399 396 -398 -51 -54 -52 0
-399 -396 -398 51 54 -52 0
-399 -396 -398 -51 -54 -52 0
401 398 -51 0
401 -398 51 0
-401 398 51 0
-401 -398 -51 0
400 54 -52 0
400 -54 52 0
-400 54 52 0
-400 -54 -52 0
402 -399 401 0
402 -399 50 0
-402 399 401 0
-402 399 50 0
402 -399 49 -52 0
402 -399 -49 52 0
-402 399 49 -52 0
-402 399 -49 52 0
402 399 -401 49 52 -50 0
402 399 -401 -49 -52 -50 0
-402 -399 -401 49 52 -50 0
-402 -399 -401 -49 -52 -50 0
404 401 -49 0
404 -401 49 0
-404 401 49 0
-404 -401 -49 0
403 52 -50 0
403 -52 50 0
-403 52 50 0
-403 -52 -50 0
405 -402 404 0
405 -402 48 0
-405 402 404 0
-405 402 48 0
405 -402 47 -50 0
405 -402 -47 50 0
-405 402 47 -50 0
-405 402 -47 50 0
405 402 -404 47 50 -48 0
405 402 -404 -47 -50 -48 0
-405 -402 -404 47 50 -48 0
-405 -402 -404 -47 -50 -48 0
407 404 -47 0
407 -404 47 0
-407 404 47 0
-407 -404 -47 0
406 50 -48 0
406 -50 48 0
-406 50 48 0
-406 -50 -48 0
408 -405 407 0
408 -405 46 0
-408 405 407 0
-408 405 46 0
408 -405 45 -48 0
408 -405 -45 48 0
-408 405 45 -48 0
-408 405 -45 48 0
408 405 -407 45 48 -46 0
408 405 -407 -45 -48 -46 0
-408 -405 -407 45 48 -46 0
-408 -405 -407 -45 -48 -46 0
410 407 -45 0
410 -407 45 0
-410 407 45 0
-410 -407 -45 0
409 48 -46 0
409 -48 46 0
-409 48 46 0
-409 -48 -46 0
411 -408 410 0
411 -408 44 0
-411 408 410 0
-411 408 44 0
411 -408 43 -46 0
411 -408 -43 46 0
-411 408 43 -46 0
-411 408 -43 46 0
411 408 -410 43 46 -44 0
411 408 -410 -43 -46 -44 0
-411 -408 -410 43 46 -44 0
-411 -408 -410 -43 -46 -44 0
413 410 -43 0
413 -410 43 0
-413 410 43 0
-413 -410 -43 0
412 46 -44 0
412 -46 44 0
-412 46 44 0
-412 -46 -44 0
414 -411 413 0
414 -411 42 0
-414 411 413 0
-414 411 42 0
414 -411 41 -44 0
414 -411 -41 44 0
-414 411 41 -44 0
-414 411 -41 44 0
414 411 -413 41 44 -42 0
414 411 -413 -41 -44 -42 0
-414 -411 -413 41 44 -42 0
-414 -411 -413 -41 -44 -42 0
416 413 -41 0
416 -413 41 0
-416 413 41 0
-416 -413 -41 0
415 44 -42 0
415 -44 42 0
-415 44 42 0
-415 -44 -42 0
417 -414 416 0
417 -414 40 0
-417 414 416 0
-417 414 40 0
417 -414 39 -42 0
417 -414 -39 42 0
-417 414 39 -42 0
-417 414 -39 42 0
417 414 -416 39 42 -40 0
417 414 -416 -39 -42 -40 0
-417 -414 -416 39 42 -40 0
-417 -414 -416 -39 -42 -40 0
419 416 -39 0
419 -416 39 0
-419 416 39 0
-419 -416 -39 0
418 42 -40 0
418 -42 40 0
-418 42 40 0
-418 -42 -40 0
420 -417 419 0
420 -417 38 0
-420 417 419 0
-420 417 38 0
420 -417 37 -40 0
420 -417 -37 40 0
-420 417 37 -40 0
-420 417 -37 40 0
420 417 -419 37 40 -38 0
420 417 -419 -37 -40 -38 0
-420 -417 -419 37 40 -38 0
-420 -417 -419 -37 -40 -38 0
422 419 -37 0
422 -419 37 0
-422 419 37 0
-422 -419 -37 0
421 40 -38 0
421 -40 38 0
-421 40 38 0
-421 -40 -38 0
423 -420 422 0
423 -420 36 0
-423 420 422 0
-423 420 36 0
423 -420 35 -38 0
423 -420 -35 38 0
-423 420 35 -38 0
-423 420 -35 38 0
423 420 -422 35 38 -36 0
423 420 -422 -35 -38 -36 0
-423 -420 -422 35 38 -36 0
-423 -420 -422 -35 -38 -36 0
425 422 -35 0
425 -422 35 0
-425 422 35 0
-425 -422 -35 0
424 38 -36 0
424 -38 36 0
-424 38 36 0
-424 -38 -36 0
426 -423 425 0
426 -423 34 0
-426 423 425 0
-426 423 34 0
426 -423 33 -36 0
426 -423 -33 36 0
-426 423 33 -36 0
-426 423 -33 36 0
426 423 -425 33 36 -34 0
426 423 -425 -33 -36 -34 0
-426 -423 -425 33 36 -34 0
-426 -423 -425 -33 -36 -34 0
428 425 -33 0
428 -425 33 0
-428 425 33 0
-428 -425 -33 0
427 36 -34 0
427 -36 34 0
-427 36 34 0
-427 -36 -34 0
429 -426 428 0
429 -426 32 0
-429 426 428 0
-429 426 32 0
429 -426 31 -34 0
429 -426 -31 34 0
-429 426 31 -34 0
-429 426 -31 34 0
429 426 -428 31 34 -32 0
429 426 -428 -31 -34 -32 0
-429 -426 -428 31 34 -32 0
-429 -426 -428 -31 -34 -32 0
431 428 -31 0
431 -428 31 0
-431 428 31 0
-431 -428 -31 0
430 34 -32 0
430 -34 32 0
-430 34 32 0
-430 -34 -32 0
432 -429 431 0
432 -429 30 0
-432 429 431 0
-432 429 30 0
432 -429 29 -32 0
432 -429 -29 32 0
-432 429 29 -32 0
-432 429 -29 32 0
432 429 -431 29 32 -30 0
432 429 -431 -29 -32 -30 0
-432 -429 -431 29 32 -30 0
-432 -429 -431 -29 -32 -30 0
434 431 -29 0
434 -431 29 0
-434 431 29 0
-434 -431 -29 0
433 32 -30 0
433 -32 30 0
-433 32 30 0
-433 -32 -30 0
435 -432 434 0
435 -432 28 0
-435 432 434 0
-435 432 28 0
435 -432 27 -30 0
435 -432 -27 30 0
-435 432 27 -30 0
-435 432 -27 30 0
435 432 -434 27 30 -28 0
435 432 -434 -27 -30 -28 0
-435 -432 -434 27 30 -28 0
-435 -432 -434 -27 -30 -28 0
437 434 -27 0
437 -434 27 0
-437 434 27 0
-437 -434 -27 0
436 30 -28 0
436 -30 28 0
-436 30 28 0
-436 -30 -28 0
438 -435 437 0
438 -435 26 0
-438 435 437 0
-438 435 26 0
438 -435 25 -28 0
438 -435 -25 28 0
-438 435 25 -28 0
-438 435 -25 28 0
438 435 -437 25 28 -26 0
438 435 -437 -25 -28 -26 0
-438 -435 -437 25 28 -26 0
-438 -435 -437 -25 -28 -26 0
440 437 -25 0
440 -437 25 0
-440 437 25 0
-440 -437 -25 0
439 28 -26 0
439 -28 26 0
-439 28 26 0
-439 -28 -26 0
441 -438 440 0
441 -438 24 0
-441 438 440 0
-441 438 24 0
441 -438 23 -26 0
441 -438 -23 26 0
-441 438 23 -26 0
-441 438 -23 26 0
441 438 -440 23 26 -24 0
441 438 -440 -23 -26 -24 0
-441 -438 -440 23 26 -24 0
-441 -438 -440 -23 -26 -24 0
443 440 -23 0
443 -440 23 0
-443 440 23 0
-443 -440 -23 0
442 26 -24 0
442 -26 24 0
-442 26 24 0
-442 -26 -24 0
444 -441 443 0
444 -441 22 0
-444 441 443 0
-444 441 22 0
444 -441 21 -24 0
444 -441 -21 24 0
-444 441 21 -24 0
-444 441 -21 24 0
444 441 -443 21 24 -22 0
444 441 -443 -21 -24 -22 0
-444 -441 -443 21 24 -22 0
-444 -441 -443 -21 -24 -22 0
446 443 -21 0
446 -443 21 0
-446 443 21 0
-446 -443 -21 0
445 24 -22 0
445 -24 22 0
-445 24 22 0
-445 -24 -22 0
447 -444 446 0
447 -444 20 0
-447 444 446 0
-447 444 20 0
447 -444 19 -22 0
447 -444 -19 22 0
-447 444 19 -22 0
-447 444 -19 22 0
447 444 -446 19 22 -20 0
447 444 -446 -19 -22 -20 0
-447 -444 -446 19 22 -20 0
-447 -444 -446 -19 -22 -20 0
449 446 -19 0
449 -446 19 0
-449 446 19 0
-449 -446 -19 0
448 22 -20 0
448 -22 20 0
-448 22 20 0
-448 -22 -20 0
450 -447 449 0
450 -447 18 0
-450 447 449 0
-450 447 18 0
450 -447 17 -20 0
450 -447 -17 20 0
-450 447 17 -20 0
-450 447 -17 20 0
450 447 -449 17 20 -18 0
450 447 -449 -17 -20 -18 0
-450 -447 -449 17 20 -18 0
-450 -447 -449 -17 -20 -18 0
452 449 -17 0
452 -449 17 0
-452 449 17 0
-452 -449 -17 0
451 20 -18 0
451 -20 18 0
-451 20 18 0
-451 -20 -18 0
453 -450 452 0
453 -450 16 0
-453 450 452 0
-453 450 16 0
453 -450 15 -18 0
453 -450 -15 18 0
-453 450 15 -18 0
-453 450 -15 18 0
453 450 -452 15 18 -16 0
453 450 -452 -15 -18 -16 0
-453 -450 -452 15 18 -16 0
-453 -450 -452 -15 -18 -16 0
455 452 -15 0
455 -452 15 0
-455 452 15 0
-455 -452 -15 0
454 18 -16 0
454 -18 16 0
-454 18 16 0
-454 -18 -16 0
456 -453 455 0
456 -453 14 0
-456 453 455 0
-456 453 14 0
456 -453 13 -16 0
456 -453 -13 16 0
-456 453 13 -16 0
-456 453 -13 16 0
456 453 -455 13 16 -14 0
456 453 -455 -13 -16 -14 0
-456 -453 -455 13 16 -14 0
-456 -453 -455 -13 -16 -14 0
458 455 -13 0
458 -455 13 0
-458 455 13 0
-458 -455 -13 0
457 16 -14 0
457 -16 14 0
-457 16 14 0
-457 -16 -14 0
459 -456 458 0
459 -456 12 0
-459 456 458 0
-459 456 12 0
459 -456 11 -14 0
459 -456 -11 14 0
-459 456 11 -14 0
-459 456 -11 14 0
459 456 -458 11 14 -12 0
459 456 -458 -11 -14 -12 0
-459 -456 -458 11 14 -12 0
-459 -456 -458 -11 -14 -12 0
461 458 -11 0
461 -458 11 0
-461 458 11 0
-461 -458 -11 0
460 14 -12 0
460 -14 12 0
-460 14 12 0
-460 -14 -12 0
462 -459 461 0
462 -459 10 0
-462 459 461 0
-462 459 10 0
462 -459 9 -12 0
462 -459 -9 12 0
-462 459 9 -12 0
-462 459 -9 12 0
462 459 -461 9 12 -10 0
462 459 -461 -9 -12 -10 0
-462 -459 -461 9 12 -10 0
-462 -459 -461 -9 -12 -10 0
464 461 -9 0
464 -461 9 0
-464 461 9 0
-464 -461 -9 0
463 12 -10 0
463 -12 10 0
-463 12 10 0
-463 -12 -10 0
465 -462 464 0
465 -462 8 0
-465 462 464 0
-465 462 8 0
465 -462 7 -10 0
465 -462 -7 10 0
-465 462 7 -10 0
-465 462 -7 10 0
465 462 -464 7 10 -8 0
465 462 -464 -7 -10 -8 0
-465 -462 -464 7 10 -8 0
-465 -462 -464 -7 -10 -8 0
467 464 -7 0
467 -464 7 0
-467 464 7 0
-467 -464 -7 0
466 10 -8 0
466 -10 8 0
-466 10 8 0
-466 -10 -8 0
468 -465 467 0
468 -465 6 0
-468 465 467 0
-468 465 6 0
468 -465 5 -8 0
468 -465 -5 8 0
-468 465 5 -8 0
-468 465 -5 8 0
468 465 -467 5 8 -6 0
468 465 -467 -5 -8 -6 0
-468 -465 -467 5 8 -6 0
-468 -465 -467 -5 -8 -6 0
470 467 -5 0
470 -467 5 0
-470 467 5 0
-470 -467 -5 0
469 8 -6 0
469 -8 6 0
-469 8 6 0
-469 -8 -6 0
471 -468 470 0
471 -468 4 0
-471 468 470 0
-471 468 4 0
471 -468 3 -6 0
471 -468 -3 6 0
-471 468 3 -6 0
-471 468 -3 6 0
471 468 -470 3 6 -4 0
471 468 -470 -3 -6 -4 0
-471 -468 -470 3 6 -4 0
-471 -468 -470 -3 -6 -4 0
473 470 -3 0
473 -470 3 0
-473 470 3 0
-473 -470 -3 0
472 6 -4 0
472 -6 4 0
-472 6 4 0
-472 -6 -4 0
474 -471 473 0
474 -471 2 0
-474 471 473 0
-474 471 2 0
474 -471 1 -4 0
474 -471 -1 4 0
-474 471 1 -4 0
-474 471 -1 4 0
474 471 -473 1 4 -2 0
474 471 -473 -1 -4 -2 0
-474 -471 -473 1 4 -2 0
-474 -471 -473 -1 -4 -2 0
476 473 -1 0
476 -473 1 0
-476 473 1 0
-476 -473 -1 0
475 4 -2 0
475 -4 2 0
-475 4 2 0
-475 -4 -2 0
